300
500
350
350
348
348
347
347
347
346
345
345
344
343
342
342
341
340
337
336
336
334
334
334
333
331
329
329
329
327
327
325
324
323
321
320
320
320
320
319
319
317
317
315
314
314
314
313
313
312
311
311
310
309
302
301
299
297
295
293
289
287
285
285
285
284
283
282
282
281
281
280
280
280
279
278
277
277
277
276
276
275
273
273
273
272
272
272
270
268
268
267
267
266
265
265
263
263
262
262
262
262
262
261
260
258
258
256
254
253
252
252
252
251
251
250
249
249
248
246
246
246
246
245
245
244
242
239
235
233
232
231
231
230
228
228
227
226
224
222
222
221
219
216
214
214
213
212
212
210
210
208
206
206
201
201
200
200
200
199
199
198
198
197
193
192
191
190
190
188
187
187
185
182
181
181
181
181
181
181
180
179
178
178
178
178
178
177
177
177
176
176
175
174
174
173
173
172
171
170
169
167
166
166
166
166
165
164
164
164
163
160
160
160
160
160
159
158
158
158
157
157
157
154
154
152
152
151
150
150
147
147
147
146
146
145
145
143
143
142
140
139
139
138
137
137
136
136
135
135
135
135
132
131
131
131
130
129
128
128
128
128
128
126
126
126
125
125
124
124
123
123
120
119
119
116
116
116
114
114
112
110
109
109
109
108
107
105
105
104
104
103
103
102
102
102
101
101
101
100
100
100
